50
    1    79    85
    2    32    26
    3    47    48
    4    18    21
    5    26    22
    6    85    95
    7    33    43
    8    40    45
    9    45    55
   10    59    52
   11    17     9
   12    10     1
   13    24    22
   14    85    94
   15    45    38
   16    79    74
   17    24    15
   18    74    82
   19    60    67
   20    83    84
   21    89    99
   22    40    33
   23    84    82
   24    64    72
   25    82    74
   26    30    38
   27    66    56
   28    47    45
   29    90    95
   30    36    29
   31    99    99
   32    83    77
   33    94    97
   34    20    19
   35    52    42
   36     5     7
   37    26    22
   38    79    70
   39    95    98
   40    99   100
   41    35    45
   42    60    67
   43    77    72
   44    90    95
   45    19    13
   46    45    48
   47    80    87
   48    20    23
   49    34    29
   50    70    74
464
